c Sudoku solution
p cnf 729 0
117 0
146 0
163 0
211 0
272 0
413 0
436 0
441 0
555 0
578 0
592 0
674 0
722 0
754 0
847 0
883 0
982 0
373 0
543 0
733 0
223 0
953 0
693 0
928 0
937 0
389 0
485 0
468 0
564 0
452 0
649 0
424 0
519 0
531 0
527 0
625 0
681 0
586 0
821 0
839 0
129 0
326 0
342 0
132 0
612 0
638 0
318 0
244 0
235 0
334 0
365 0
748 0
898 0
994 0
814 0
945 0
875 0
715 0
916 0
856 0
862 0
657 0
666 0
351 0
158 0
267 0
259 0
397 0
171 0
184 0
195 0
979 0
769 0
961 0
776 0
477 0
499 0
787 0
791 0
288 0
296 0
